32      2       
14      12      
0       0       0       3       2       3       4       
10      9       9       3       5       6       8       
5       1       1       2       5       6       
4       0       1       2       5       8       
8       3       0       1       7       
7       0       1       1       7       
4       1       0       2       9       10      
5       5       2       2       9       10      
4       0       3       3       11      13      14      
5       0       0       3       11      12      14      
4       5       1       2       15      16      
10      0       1       2       15      16      
6       0       0       2       15      16      
3       3       0       1       15      
7       3       0       2       17      20      
2       6       4       2       18      20      
7       0       3       1       18      
3       0       0       1       19      
5       3       0       2       21      22      
6       0       0       1       21      
3       0       0       2       23      24      
1       2       3       1       23      
1       0       0       2       26      28      
1       0       1       1       25      
7       0       3       2       27      28      
6       1       0       1       27      
2       7       0       2       29      30      
5       3       0       2       29      30      
2       1       6       1       31      
8       0       0       1       31      
2       0       6       1       32      
0       0       0       0       
